p edge 51 124
e 6 1
e 7 4
e 8 5
e 9 2
e 9 6
e 10 9
e 11 8
e 14 7
e 14 8
e 14 9
e 14 12
e 15 3
e 15 10
e 16 1
e 18 5
e 19 17
e 21 13
e 22 10
e 22 18
e 23 8
e 23 9
e 24 12
e 24 13
e 25 2
e 25 4
e 25 6
e 25 10
e 26 1
e 26 24
e 27 13
e 27 25
e 28 21
e 28 26
e 29 1
e 29 6
e 29 13
e 29 14
e 29 28
e 30 27
e 31 12
e 31 29
e 32 20
e 32 30
e 33 1
e 33 11
e 33 21
e 34 7
e 34 9
e 34 26
e 35 3
e 35 4
e 35 14
e 35 15
e 35 18
e 36 2
e 36 15
e 36 24
e 37 1
e 37 10
e 37 17
e 37 20
e 38 16
e 38 35
e 38 37
e 39 7
e 39 38
e 40 1
e 40 2
e 40 3
e 40 12
e 40 31
e 41 3
e 41 10
e 41 20
e 41 26
e 41 28
e 41 34
e 41 38
e 42 7
e 42 8
e 42 10
e 42 17
e 42 33
e 42 35
e 42 40
e 43 5
e 43 22
e 43 28
e 44 17
e 44 30
e 44 40
e 44 42
e 44 43
e 45 6
e 45 8
e 45 36
e 46 2
e 46 24
e 46 34
e 46 40
e 47 1
e 47 7
e 47 15
e 47 17
e 47 35
e 48 5
e 48 31
e 48 32
e 49 2
e 49 4
e 49 17
e 49 24
e 49 28
e 49 43
e 50 4
e 50 7
e 50 36
e 50 38
e 50 48
e 51 4
e 51 9
e 51 41
e 51 46
e 51 50
